1785.29 0
0 95 92 93 96 101 99 100 116 98 53 55 58 56 80 79 77 73 0
0 18 118 108 2 1 21 20 23 28 35 29 40 59 57 54 52 115 97 0
0 6 15 14 12 27 33 30 31 34 36 32 49 50 51 45 43 68 67 103 104 0
0 88 111 85 13 8 61 62 64 65 42 41 39 70 69 107 106 0
0 82 112 84 113 3 5 109 76 78 75 72 74 71 94 89 86 0
0 105 102 110 38 37 26 25 24 22 19 16 17 90 91 87 0
0 120 119 81 117 83 4 10 11 9 7 60 63 66 48 47 46 44 114 0